p cnf 682 1581
1 0
2 0
3 0
4 0
5 0
6 0
7 0
8 0
9 0
10 0
-11 0
-12 0
-13 0
-14 0
-15 0
-16 0
-17 0
-18 0
-19 0
-20 0
21 22 0
23 22 0
24 22 0
-21 -23 -24 -22 0
-1 -25 22 0
1 -25 -22 0
25 -22 -1 0
1 25 22 0
-25 0
23 26 0
24 26 0
-23 -24 -26 0
-27 26 -28 0
27 -26 -28 0
28 -26 -27 0
27 26 28 0
-28 0
29 -24 0
24 -29 0
30 31 0
32 31 0
33 31 0
34 31 0
35 31 0
36 31 0
-37 0
-2 31 -38 0
2 -31 -38 0
38 -31 -2 0
2 31 38 0
-38 0
32 39 0
33 39 0
34 39 0
35 39 0
36 39 0
-40 0
-41 39 -42 0
41 -39 -42 0
42 -39 -41 0
41 39 42 0
-42 0
33 43 0
34 43 0
35 43 0
36 43 0
-44 0
-45 43 -46 0
45 -43 -46 0
46 -43 -45 0
45 43 46 0
-46 0
34 47 0
35 47 0
36 47 0
-34 -35 -36 -47 0
-48 47 -49 0
48 -47 -49 0
49 -47 -48 0
48 47 49 0
-49 0
35 50 0
36 50 0
-35 -36 -50 0
-51 50 -52 0
51 -50 -52 0
52 -50 -51 0
51 50 52 0
-52 0
-53 50 -54 0
53 -50 -54 0
54 -50 -53 0
53 50 54 0
-54 0
55 56 0
57 56 0
58 56 0
59 56 0
-60 0
-3 56 -61 0
3 -56 -61 0
61 -56 -3 0
3 56 61 0
-61 0
57 62 0
58 62 0
59 62 0
-57 -58 -59 -62 0
-63 62 -64 0
63 -62 -64 0
64 -62 -63 0
63 62 64 0
-64 0
58 65 0
59 65 0
-58 -59 -65 0
-66 65 -67 0
66 -65 -67 0
67 -65 -66 0
66 65 67 0
-67 0
-68 65 -69 0
68 -65 -69 0
69 -65 -68 0
68 65 69 0
-69 0
70 71 0
72 71 0
73 71 0
-70 -72 -73 -71 0
-4 71 -74 0
4 -71 -74 0
74 -71 -4 0
4 71 74 0
-74 0
72 75 0
73 75 0
-72 -73 -75 0
-76 75 -77 0
76 -75 -77 0
77 -75 -76 0
76 75 77 0
-77 0
-78 75 -79 0
78 -75 -79 0
79 -75 -78 0
78 75 79 0
-79 0
80 81 0
82 81 0
83 81 0
84 81 0
85 81 0
86 81 0
-87 0
-5 81 -88 0
5 -81 -88 0
88 -81 -5 0
5 81 88 0
-88 0
82 89 0
83 89 0
84 89 0
85 89 0
86 89 0
-90 0
-91 89 -92 0
91 -89 -92 0
92 -89 -91 0
91 89 92 0
-92 0
83 93 0
84 93 0
85 93 0
86 93 0
-94 0
-95 93 -96 0
95 -93 -96 0
96 -93 -95 0
95 93 96 0
-96 0
-97 93 -98 0
97 -93 -98 0
98 -93 -97 0
97 93 98 0
-98 0
-99 93 -100 0
99 -93 -100 0
100 -93 -99 0
99 93 100 0
-100 0
-101 93 -102 0
101 -93 -102 0
102 -93 -101 0
101 93 102 0
-102 0
103 104 0
105 104 0
106 104 0
107 104 0
-108 0
-6 104 -109 0
6 -104 -109 0
109 -104 -6 0
6 104 109 0
-109 0
105 110 0
106 110 0
107 110 0
-105 -106 -107 -110 0
-111 110 -112 0
111 -110 -112 0
112 -110 -111 0
111 110 112 0
-112 0
106 113 0
107 113 0
-106 -107 -113 0
-114 113 -115 0
114 -113 -115 0
115 -113 -114 0
114 113 115 0
-115 0
-116 113 -117 0
116 -113 -117 0
117 -113 -116 0
116 113 117 0
-117 0
118 119 0
120 119 0
121 119 0
-118 -120 -121 -119 0
-7 119 -122 0
7 -119 -122 0
122 -119 -7 0
7 119 122 0
-122 0
120 123 0
121 123 0
-120 -121 -123 0
-124 123 -125 0
124 -123 -125 0
125 -123 -124 0
124 123 125 0
-125 0
126 -121 0
121 -126 0
127 128 0
129 128 0
130 128 0
131 128 0
132 128 0
133 128 0
134 128 0
-135 0
-8 128 -136 0
8 -128 -136 0
136 -128 -8 0
8 128 136 0
-136 0
129 137 0
130 137 0
131 137 0
132 137 0
133 137 0
134 137 0
-138 0
-139 137 -140 0
139 -137 -140 0
140 -137 -139 0
139 137 140 0
-140 0
130 141 0
131 141 0
132 141 0
133 141 0
134 141 0
-142 0
-143 141 -144 0
143 -141 -144 0
144 -141 -143 0
143 141 144 0
-144 0
131 145 0
132 145 0
133 145 0
134 145 0
-146 0
-147 145 -148 0
147 -145 -148 0
148 -145 -147 0
147 145 148 0
-148 0
-149 145 -150 0
149 -145 -150 0
150 -145 -149 0
149 145 150 0
-150 0
-151 145 -152 0
151 -145 -152 0
152 -145 -151 0
151 145 152 0
-152 0
-153 145 -154 0
153 -145 -154 0
154 -145 -153 0
153 145 154 0
-154 0
155 156 0
157 156 0
158 156 0
-155 -157 -158 -156 0
-9 156 -159 0
9 -156 -159 0
159 -156 -9 0
9 156 159 0
-159 0
157 160 0
158 160 0
-157 -158 -160 0
-161 160 -162 0
161 -160 -162 0
162 -160 -161 0
161 160 162 0
-162 0
-163 160 -164 0
163 -160 -164 0
164 -160 -163 0
163 160 164 0
-164 0
165 166 0
167 166 0
168 166 0
-165 -167 -168 -166 0
-10 166 -169 0
10 -166 -169 0
169 -166 -10 0
10 166 169 0
-169 0
167 170 0
168 170 0
-167 -168 -170 0
-171 170 -172 0
171 -170 -172 0
172 -170 -171 0
171 170 172 0
-172 0
173 -168 0
168 -173 0
174 175 0
176 175 0
177 175 0
178 175 0
179 175 0
180 175 0
-181 0
-11 175 -182 0
11 -175 -182 0
182 -175 -11 0
11 175 182 0
-182 0
176 183 0
177 183 0
178 183 0
179 183 0
180 183 0
-184 0
-185 183 -186 0
185 -183 -186 0
186 -183 -185 0
185 183 186 0
-186 0
177 187 0
178 187 0
179 187 0
180 187 0
-188 0
-189 187 -190 0
189 -187 -190 0
190 -187 -189 0
189 187 190 0
-190 0
-191 187 -192 0
191 -187 -192 0
192 -187 -191 0
191 187 192 0
-192 0
-193 187 -194 0
193 -187 -194 0
194 -187 -193 0
193 187 194 0
-194 0
-195 187 -196 0
195 -187 -196 0
196 -187 -195 0
195 187 196 0
-196 0
197 198 0
199 198 0
200 198 0
201 198 0
202 198 0
203 198 0
-204 0
-12 198 -205 0
12 -198 -205 0
205 -198 -12 0
12 198 205 0
-205 0
199 206 0
200 206 0
201 206 0
202 206 0
203 206 0
-207 0
-208 206 -209 0
208 -206 -209 0
209 -206 -208 0
208 206 209 0
-209 0
200 210 0
201 210 0
202 210 0
203 210 0
-211 0
-212 210 -213 0
212 -210 -213 0
213 -210 -212 0
212 210 213 0
-213 0
201 214 0
202 214 0
203 214 0
-201 -202 -203 -214 0
-215 214 -216 0
215 -214 -216 0
216 -214 -215 0
215 214 216 0
-216 0
202 217 0
203 217 0
-202 -203 -217 0
-218 217 -219 0
218 -217 -219 0
219 -217 -218 0
218 217 219 0
-219 0
-220 217 -221 0
220 -217 -221 0
221 -217 -220 0
220 217 221 0
-221 0
222 223 0
224 223 0
225 223 0
226 223 0
227 223 0
228 223 0
-229 0
-13 223 -230 0
13 -223 -230 0
230 -223 -13 0
13 223 230 0
-230 0
224 231 0
225 231 0
226 231 0
227 231 0
228 231 0
-232 0
-233 231 -234 0
233 -231 -234 0
234 -231 -233 0
233 231 234 0
-234 0
225 235 0
226 235 0
227 235 0
228 235 0
-236 0
-237 235 -238 0
237 -235 -238 0
238 -235 -237 0
237 235 238 0
-238 0
226 239 0
227 239 0
228 239 0
-226 -227 -228 -239 0
-240 239 -241 0
240 -239 -241 0
241 -239 -240 0
240 239 241 0
-241 0
-242 239 -243 0
242 -239 -243 0
243 -239 -242 0
242 239 243 0
-243 0
-244 239 -245 0
244 -239 -245 0
245 -239 -244 0
244 239 245 0
-245 0
246 247 0
248 247 0
249 247 0
250 247 0
251 247 0
252 247 0
253 247 0
254 247 0
-255 0
-14 247 -256 0
14 -247 -256 0
256 -247 -14 0
14 247 256 0
-256 0
248 257 0
249 257 0
250 257 0
251 257 0
252 257 0
253 257 0
254 257 0
-258 0
-259 257 -260 0
259 -257 -260 0
260 -257 -259 0
259 257 260 0
-260 0
249 261 0
250 261 0
251 261 0
252 261 0
253 261 0
254 261 0
-262 0
-263 261 -264 0
263 -261 -264 0
264 -261 -263 0
263 261 264 0
-264 0
250 265 0
251 265 0
252 265 0
253 265 0
254 265 0
-266 0
-267 265 -268 0
267 -265 -268 0
268 -265 -267 0
267 265 268 0
-268 0
251 269 0
252 269 0
253 269 0
254 269 0
-270 0
-271 269 -272 0
271 -269 -272 0
272 -269 -271 0
271 269 272 0
-272 0
-273 269 -274 0
273 -269 -274 0
274 -269 -273 0
273 269 274 0
-274 0
-275 269 -276 0
275 -269 -276 0
276 -269 -275 0
275 269 276 0
-276 0
-277 269 -278 0
277 -269 -278 0
278 -269 -277 0
277 269 278 0
-278 0
279 280 0
281 280 0
282 280 0
283 280 0
-284 0
-15 280 -285 0
15 -280 -285 0
285 -280 -15 0
15 280 285 0
-285 0
281 286 0
282 286 0
283 286 0
-281 -282 -283 -286 0
-287 286 -288 0
287 -286 -288 0
288 -286 -287 0
287 286 288 0
-288 0
282 289 0
283 289 0
-282 -283 -289 0
-290 289 -291 0
290 -289 -291 0
291 -289 -290 0
290 289 291 0
-291 0
-292 289 -293 0
292 -289 -293 0
293 -289 -292 0
292 289 293 0
-293 0
294 295 0
296 295 0
297 295 0
298 295 0
299 295 0
-300 0
-16 295 -301 0
16 -295 -301 0
301 -295 -16 0
16 295 301 0
-301 0
296 302 0
297 302 0
298 302 0
299 302 0
-303 0
-304 302 -305 0
304 -302 -305 0
305 -302 -304 0
304 302 305 0
-305 0
297 306 0
298 306 0
299 306 0
-297 -298 -299 -306 0
-307 306 -308 0
307 -306 -308 0
308 -306 -307 0
307 306 308 0
-308 0
-309 306 -310 0
309 -306 -310 0
310 -306 -309 0
309 306 310 0
-310 0
-311 306 -312 0
311 -306 -312 0
312 -306 -311 0
311 306 312 0
-312 0
313 314 0
315 314 0
316 314 0
317 314 0
318 314 0
-319 0
-17 314 -320 0
17 -314 -320 0
320 -314 -17 0
17 314 320 0
-320 0
315 321 0
316 321 0
317 321 0
318 321 0
-322 0
-323 321 -324 0
323 -321 -324 0
324 -321 -323 0
323 321 324 0
-324 0
316 325 0
317 325 0
318 325 0
-316 -317 -318 -325 0
-326 325 -327 0
326 -325 -327 0
327 -325 -326 0
326 325 327 0
-327 0
317 328 0
318 328 0
-317 -318 -328 0
-329 328 -330 0
329 -328 -330 0
330 -328 -329 0
329 328 330 0
-330 0
-331 328 -332 0
331 -328 -332 0
332 -328 -331 0
331 328 332 0
-332 0
333 334 0
335 334 0
336 334 0
337 334 0
338 334 0
-339 0
-18 334 -340 0
18 -334 -340 0
340 -334 -18 0
18 334 340 0
-340 0
335 341 0
336 341 0
337 341 0
338 341 0
-342 0
-343 341 -344 0
343 -341 -344 0
344 -341 -343 0
343 341 344 0
-344 0
336 345 0
337 345 0
338 345 0
-336 -337 -338 -345 0
-346 345 -347 0
346 -345 -347 0
347 -345 -346 0
346 345 347 0
-347 0
-348 345 -349 0
348 -345 -349 0
349 -345 -348 0
348 345 349 0
-349 0
-350 345 -351 0
350 -345 -351 0
351 -345 -350 0
350 345 351 0
-351 0
352 353 0
354 353 0
355 353 0
356 353 0
-357 0
-19 353 -358 0
19 -353 -358 0
358 -353 -19 0
19 353 358 0
-358 0
354 359 0
355 359 0
356 359 0
-354 -355 -356 -359 0
-360 359 -361 0
360 -359 -361 0
361 -359 -360 0
360 359 361 0
-361 0
355 362 0
356 362 0
-355 -356 -362 0
-363 362 -364 0
363 -362 -364 0
364 -362 -363 0
363 362 364 0
-364 0
365 -356 0
356 -365 0
366 367 0
368 367 0
369 367 0
370 367 0
371 367 0
-372 0
-20 367 -373 0
20 -367 -373 0
373 -367 -20 0
20 367 373 0
-373 0
368 374 0
369 374 0
370 374 0
371 374 0
-375 0
-376 374 -377 0
376 -374 -377 0
377 -374 -376 0
376 374 377 0
-377 0
369 378 0
370 378 0
371 378 0
-369 -370 -371 -378 0
-379 378 -380 0
379 -378 -380 0
380 -378 -379 0
379 378 380 0
-380 0
-381 378 -382 0
381 -378 -382 0
382 -378 -381 0
381 378 382 0
-382 0
-383 378 -384 0
383 -378 -384 0
384 -378 -383 0
383 378 384 0
-384 0
385 386 0
386 -387 0
-385 387 -386 0
21 -386 0
-21 386 0
388 389 0
-390 389 0
-388 390 -389 0
23 -389 0
-23 389 0
391 392 0
392 -393 0
-391 393 -392 0
24 -392 0
-24 392 0
394 395 0
395 -396 0
-394 396 -395 0
30 -395 0
-30 395 0
397 398 0
-399 398 0
-397 399 -398 0
32 -398 0
-32 398 0
400 401 0
-402 401 0
-400 402 -401 0
33 -401 0
-33 401 0
403 404 0
404 -405 0
-403 405 -404 0
34 -404 0
-34 404 0
406 407 0
407 -408 0
-406 408 -407 0
35 -407 0
-35 407 0
409 410 0
-411 410 0
-409 411 -410 0
36 -410 0
-36 410 0
412 413 0
-414 413 0
-412 414 -413 0
55 -413 0
-55 413 0
415 416 0
416 -417 0
-415 417 -416 0
57 -416 0
-57 416 0
418 419 0
419 -420 0
-418 420 -419 0
58 -419 0
-58 419 0
421 422 0
-423 422 0
-421 423 -422 0
59 -422 0
-59 422 0
424 425 0
-426 425 0
-424 426 -425 0
70 -425 0
-70 425 0
427 428 0
428 -429 0
-427 429 -428 0
72 -428 0
-72 428 0
430 431 0
-432 431 0
-430 432 -431 0
73 -431 0
-73 431 0
433 434 0
-435 434 0
-433 435 -434 0
80 -434 0
-80 434 0
436 437 0
437 -438 0
-436 438 -437 0
82 -437 0
-82 437 0
439 440 0
-441 440 0
-439 441 -440 0
83 -440 0
-83 440 0
442 443 0
-444 443 0
-442 444 -443 0
84 -443 0
-84 443 0
445 446 0
446 -447 0
-445 447 -446 0
85 -446 0
-85 446 0
448 449 0
-450 449 0
-448 450 -449 0
86 -449 0
-86 449 0
451 452 0
-453 452 0
-451 453 -452 0
103 -452 0
-103 452 0
454 455 0
-456 455 0
-454 456 -455 0
105 -455 0
-105 455 0
457 458 0
458 -459 0
-457 459 -458 0
106 -458 0
-106 458 0
460 461 0
-462 461 0
-460 462 -461 0
107 -461 0
-107 461 0
463 464 0
464 -465 0
-463 465 -464 0
118 -464 0
-118 464 0
466 467 0
-468 467 0
-466 468 -467 0
120 -467 0
-120 467 0
469 470 0
470 -471 0
-469 471 -470 0
121 -470 0
-121 470 0
472 473 0
-474 473 0
-472 474 -473 0
127 -473 0
-127 473 0
475 476 0
-477 476 0
-475 477 -476 0
129 -476 0
-129 476 0
478 479 0
479 -480 0
-478 480 -479 0
130 -479 0
-130 479 0
481 482 0
-483 482 0
-481 483 -482 0
131 -482 0
-131 482 0
484 485 0
485 -486 0
-484 486 -485 0
132 -485 0
-132 485 0
487 488 0
-489 488 0
-487 489 -488 0
133 -488 0
-133 488 0
490 491 0
-492 491 0
-490 492 -491 0
134 -491 0
-134 491 0
493 494 0
-495 494 0
-493 495 -494 0
155 -494 0
-155 494 0
496 497 0
-498 497 0
-496 498 -497 0
157 -497 0
-157 497 0
499 500 0
500 -501 0
-499 501 -500 0
158 -500 0
-158 500 0
502 503 0
-504 503 0
-502 504 -503 0
165 -503 0
-165 503 0
505 506 0
-507 506 0
-505 507 -506 0
167 -506 0
-167 506 0
508 509 0
509 -510 0
-508 510 -509 0
168 -509 0
-168 509 0
511 512 0
-513 512 0
-511 513 -512 0
174 -512 0
-174 512 0
514 515 0
515 -516 0
-514 516 -515 0
176 -515 0
-176 515 0
517 518 0
518 -519 0
-517 519 -518 0
177 -518 0
-177 518 0
520 521 0
521 -522 0
-520 522 -521 0
178 -521 0
-178 521 0
523 524 0
524 -525 0
-523 525 -524 0
179 -524 0
-179 524 0
526 527 0
-528 527 0
-526 528 -527 0
180 -527 0
-180 527 0
529 530 0
530 -531 0
-529 531 -530 0
197 -530 0
-197 530 0
532 533 0
-534 533 0
-532 534 -533 0
199 -533 0
-199 533 0
535 536 0
536 -537 0
-535 537 -536 0
200 -536 0
-200 536 0
538 539 0
-540 539 0
-538 540 -539 0
201 -539 0
-201 539 0
541 542 0
-543 542 0
-541 543 -542 0
202 -542 0
-202 542 0
544 545 0
-546 545 0
-544 546 -545 0
203 -545 0
-203 545 0
547 548 0
-549 548 0
-547 549 -548 0
222 -548 0
-222 548 0
550 551 0
551 -552 0
-550 552 -551 0
224 -551 0
-224 551 0
553 554 0
-555 554 0
-553 555 -554 0
225 -554 0
-225 554 0
556 557 0
-558 557 0
-556 558 -557 0
226 -557 0
-226 557 0
559 560 0
-561 560 0
-559 561 -560 0
227 -560 0
-227 560 0
562 563 0
563 -564 0
-562 564 -563 0
228 -563 0
-228 563 0
565 566 0
-567 566 0
-565 567 -566 0
246 -566 0
-246 566 0
568 569 0
-570 569 0
-568 570 -569 0
248 -569 0
-248 569 0
571 572 0
572 -573 0
-571 573 -572 0
249 -572 0
-249 572 0
574 575 0
-576 575 0
-574 576 -575 0
250 -575 0
-250 575 0
577 578 0
-579 578 0
-577 579 -578 0
251 -578 0
-251 578 0
580 581 0
581 -582 0
-580 582 -581 0
252 -581 0
-252 581 0
583 584 0
-585 584 0
-583 585 -584 0
253 -584 0
-253 584 0
586 587 0
-588 587 0
-586 588 -587 0
254 -587 0
-254 587 0
589 590 0
-591 590 0
-589 591 -590 0
279 -590 0
-279 590 0
592 593 0
-594 593 0
-592 594 -593 0
281 -593 0
-281 593 0
595 596 0
-597 596 0
-595 597 -596 0
282 -596 0
-282 596 0
598 599 0
-600 599 0
-598 600 -599 0
283 -599 0
-283 599 0
601 602 0
-603 602 0
-601 603 -602 0
294 -602 0
-294 602 0
604 605 0
-606 605 0
-604 606 -605 0
296 -605 0
-296 605 0
607 608 0
-609 608 0
-607 609 -608 0
297 -608 0
-297 608 0
610 611 0
-612 611 0
-610 612 -611 0
298 -611 0
-298 611 0
613 614 0
614 -615 0
-613 615 -614 0
299 -614 0
-299 614 0
616 617 0
617 -618 0
-616 618 -617 0
313 -617 0
-313 617 0
619 620 0
620 -621 0
-619 621 -620 0
315 -620 0
-315 620 0
622 623 0
-624 623 0
-622 624 -623 0
316 -623 0
-316 623 0
625 626 0
-627 626 0
-625 627 -626 0
317 -626 0
-317 626 0
628 629 0
-630 629 0
-628 630 -629 0
318 -629 0
-318 629 0
631 632 0
-633 632 0
-631 633 -632 0
333 -632 0
-333 632 0
634 635 0
-636 635 0
-634 636 -635 0
335 -635 0
-335 635 0
637 638 0
-639 638 0
-637 639 -638 0
336 -638 0
-336 638 0
640 641 0
-642 641 0
-640 642 -641 0
337 -641 0
-337 641 0
643 644 0
-645 644 0
-643 645 -644 0
338 -644 0
-338 644 0
646 647 0
-648 647 0
-646 648 -647 0
352 -647 0
-352 647 0
649 650 0
-651 650 0
-649 651 -650 0
354 -650 0
-354 650 0
652 653 0
-654 653 0
-652 654 -653 0
355 -653 0
-355 653 0
655 656 0
656 -657 0
-655 657 -656 0
356 -656 0
-356 656 0
658 659 0
659 -660 0
-658 660 -659 0
366 -659 0
-366 659 0
661 662 0
-663 662 0
-661 663 -662 0
368 -662 0
-368 662 0
664 665 0
-666 665 0
-664 666 -665 0
369 -665 0
-369 665 0
667 668 0
668 -669 0
-667 669 -668 0
370 -668 0
-370 668 0
670 671 0
-672 671 0
-670 672 -671 0
371 -671 0
-371 671 0
385 0
-388 0
391 0
394 0
-397 0
-400 0
403 0
406 0
-409 0
-412 0
415 0
418 0
-421 0
-424 0
427 0
-430 0
-433 0
436 0
-439 0
-442 0
445 0
-448 0
-451 0
-454 0
457 0
-460 0
463 0
-466 0
469 0
-472 0
-475 0
478 0
-481 0
484 0
-487 0
-490 0
-493 0
-496 0
499 0
-502 0
-505 0
508 0
511 0
514 0
517 0
520 0
523 0
-526 0
529 0
-532 0
535 0
-538 0
-541 0
544 0
-547 0
550 0
553 0
-556 0
-559 0
562 0
-565 0
-568 0
571 0
-574 0
-577 0
580 0
-583 0
586 0
589 0
592 0
595 0
-598 0
-601 0
-604 0
607 0
-610 0
613 0
616 0
619 0
-622 0
625 0
-628 0
-631 0
634 0
637 0
-640 0
-643 0
-646 0
649 0
-652 0
655 0
658 0
-661 0
664 0
667 0
-670 0
-673 -674 0
387 -673 0
390 -673 0
393 -673 0
396 -673 0
399 -673 0
402 -673 0
405 -673 0
408 -673 0
411 -673 0
414 -673 0
417 -673 0
420 -673 0
423 -673 0
-673 -426 0
429 -673 0
432 -673 0
435 -673 0
438 -673 0
441 -673 0
444 -673 0
447 -673 0
450 -673 0
-673 -453 0
-673 -456 0
459 -673 0
462 -673 0
465 -673 0
468 -673 0
471 -673 0
474 -673 0
-673 -477 0
480 -673 0
483 -673 0
486 -673 0
489 -673 0
492 -673 0
495 -673 0
498 -673 0
501 -673 0
504 -673 0
-673 -507 0
510 -673 0
-673 -513 0
516 -673 0
519 -673 0
522 -673 0
525 -673 0
-673 -528 0
531 -673 0
534 -673 0
537 -673 0
-673 -540 0
-673 -543 0
-673 -546 0
-673 -549 0
552 -673 0
-673 -555 0
-673 -558 0
-673 -561 0
564 -673 0
-673 -567 0
-673 -570 0
573 -673 0
-673 -576 0
-673 -579 0
582 -673 0
-673 -585 0
-673 -588 0
-673 -591 0
-673 -594 0
-673 -597 0
-673 -600 0
603 -673 0
606 -673 0
-673 -609 0
-673 -612 0
615 -673 0
618 -673 0
621 -673 0
-673 -624 0
-673 -627 0
630 -673 0
633 -673 0
-673 -636 0
-673 -639 0
642 -673 0
-673 -645 0
-673 -648 0
-673 -651 0
-673 -654 0
657 -673 0
660 -673 0
-673 -663 0
-673 -666 0
669 -673 0
672 -673 0
387 -674 0
-674 -390 0
393 -674 0
396 -674 0
-674 -399 0
-674 -402 0
405 -674 0
408 -674 0
-674 -411 0
-674 -414 0
417 -674 0
420 -674 0
-674 -423 0
-674 -426 0
429 -674 0
-674 -432 0
-674 -435 0
438 -674 0
-674 -441 0
-674 -444 0
447 -674 0
-674 -450 0
-674 -453 0
-674 -456 0
459 -674 0
-674 -462 0
465 -674 0
-674 -468 0
471 -674 0
-674 -474 0
-674 -477 0
480 -674 0
-674 -483 0
486 -674 0
-674 -489 0
-674 -492 0
-674 -495 0
-674 -498 0
501 -674 0
-674 -504 0
-674 -507 0
510 -674 0
513 -674 0
516 -674 0
519 -674 0
522 -674 0
525 -674 0
-674 -528 0
531 -674 0
-674 -534 0
537 -674 0
-674 -540 0
-674 -543 0
546 -674 0
-674 -549 0
552 -674 0
555 -674 0
-674 -558 0
-674 -561 0
564 -674 0
-674 -567 0
-674 -570 0
573 -674 0
-674 -576 0
-674 -579 0
582 -674 0
-674 -585 0
588 -674 0
591 -674 0
594 -674 0
597 -674 0
-674 -600 0
-674 -603 0
-674 -606 0
609 -674 0
-674 -612 0
615 -674 0
618 -674 0
621 -674 0
-674 -624 0
627 -674 0
-674 -630 0
-674 -633 0
636 -674 0
639 -674 0
-674 -642 0
-674 -645 0
-674 -648 0
651 -674 0
-674 -654 0
657 -674 0
660 -674 0
-674 -663 0
666 -674 0
669 -674 0
-674 -672 0
673 674 0
-675 0
-676 0
-677 0
-678 0
-679 0
-680 0
-681 0
-682 0
